(declare-fun b9 () (_ FloatingPoint 11 53))
(declare-fun b43 () (_ FloatingPoint 11 53))
(declare-fun b13 () (_ FloatingPoint 11 53))
(declare-fun b33 () (_ FloatingPoint 11 53))
(declare-fun b11 () (_ FloatingPoint 11 53))
(declare-fun b40 () (_ FloatingPoint 11 53))
(declare-fun b36 () (_ FloatingPoint 11 53))
(assert (let ((.def_26 (fp.leq b43 b13)))
(let ((.def_23 (fp.leq b13 b40)))
(let ((.def_20 (fp.leq b36 b9)))
(let ((.def_17 (fp.leq b9 b33)))
(let ((.def_14 (fp.leq b9 b11)))
(let ((.def_11 (fp.add RNE b13 b9)))
(let ((.def_13 (fp.lt b11 .def_11)))
(let ((.def_15 (and .def_13 .def_14)))
(let ((.def_18 (and .def_15 .def_17)))
(let ((.def_21 (and .def_18 .def_20)))
(let ((.def_24 (and .def_21 .def_23)))
(let ((.def_27 (and .def_24 .def_26)))
.def_27)))))))))))))
(check-sat)
